% seed = 0

mint = 38;
% maxt = 238;

nActs = 92;
dur = [0,3,2,3,2,2,5,4,2,3,2,2,2,6,1,2,2,1,4,2,2,5,1,4,4,1,2,5,1,2,4,3,3,1,2,2,5,3,2,1,2,2,3,4,3,2,1,2,2,2,2,1,3,2,1,3,2,1,4,4,5,3,3,4,1,1,2,2,2,3,4,1,2,2,4,4,1,2,1,1,5,6,7,2,3,5,2,4,3,1,3,0];

nSkills = 12;
sreq = [| 0,0,0,0,0,0,0,0,0,0,0,0,
	| 0,0,0,0,1,1,0,0,1,0,0,0,
	| 0,0,0,0,0,1,0,0,0,0,0,0,
	| 0,0,0,0,1,0,0,1,0,1,0,0,
	| 0,0,0,0,0,1,0,0,2,0,0,0,
	| 0,0,0,0,0,0,0,0,1,0,0,0,
	| 0,0,1,0,0,0,0,0,0,0,0,0,
	| 1,0,0,0,0,0,0,0,0,0,0,0,
	| 0,0,0,0,0,0,0,0,0,0,1,0,
	| 0,0,0,0,1,0,0,0,0,0,0,0,
	| 0,0,0,0,0,1,0,0,0,0,0,0,
	| 0,0,0,0,0,0,0,0,1,0,0,0,
	| 0,0,0,0,1,0,0,0,0,0,0,0,
	| 0,0,0,0,1,0,0,1,1,0,0,0,
	| 0,0,0,0,0,0,0,0,0,0,1,0,
	| 0,0,1,0,0,0,0,1,1,0,0,0,
	| 0,0,1,0,0,0,0,1,0,0,0,0,
	| 0,0,0,0,0,0,1,0,0,0,0,0,
	| 0,0,0,0,1,0,0,0,1,0,1,0,
	| 0,0,1,0,0,0,0,0,0,0,0,0,
	| 0,0,0,0,1,0,0,0,0,0,0,0,
	| 0,0,0,0,0,0,0,0,0,0,1,0,
	| 0,0,0,0,0,0,0,1,1,0,0,0,
	| 0,1,0,1,0,0,0,0,0,0,1,0,
	| 0,0,0,0,1,0,0,1,1,0,0,0,
	| 0,1,0,0,0,0,0,0,0,0,0,0,
	| 0,0,0,0,0,1,0,0,0,1,0,0,
	| 0,1,0,0,1,0,0,0,1,0,0,0,
	| 0,0,0,0,0,0,0,0,0,1,0,0,
	| 0,0,0,0,0,1,0,0,0,0,0,0,
	| 0,0,1,0,0,0,0,0,1,0,1,0,
	| 0,1,0,0,0,0,0,0,0,0,0,0,
	| 0,0,0,0,0,0,0,1,0,0,1,0,
	| 0,0,0,0,0,0,1,0,0,1,0,0,
	| 0,1,0,0,0,0,1,0,0,0,0,0,
	| 0,0,0,0,0,1,0,0,0,0,0,0,
	| 1,0,0,0,0,0,0,0,1,0,0,0,
	| 0,0,0,0,0,0,1,0,0,0,0,0,
	| 0,1,0,0,1,1,0,0,0,0,0,0,
	| 0,0,0,0,0,1,0,0,0,0,0,0,
	| 1,0,0,0,1,0,0,0,1,0,0,0,
	| 0,0,0,1,0,1,0,1,0,0,0,0,
	| 1,0,0,0,1,0,0,0,0,0,0,0,
	| 0,0,0,0,1,0,0,0,0,0,1,0,
	| 1,0,0,0,0,0,0,0,0,0,0,0,
	| 0,0,0,0,1,0,1,0,0,0,1,0,
	| 0,0,1,1,0,0,0,0,0,0,0,0,
	| 0,0,0,0,0,0,0,0,0,0,1,0,
	| 0,0,1,0,0,0,0,0,0,0,0,0,
	| 0,0,0,0,0,0,0,0,2,0,0,0,
	| 0,1,0,0,0,0,0,0,1,0,0,0,
	| 0,0,1,0,0,0,0,1,1,0,0,0,
	| 0,0,0,0,0,0,0,1,0,0,0,0,
	| 0,0,0,0,2,0,0,0,0,0,1,0,
	| 0,0,0,0,0,2,0,0,1,0,0,0,
	| 0,0,0,1,0,0,0,0,1,1,0,0,
	| 0,0,0,0,2,0,0,0,0,0,1,0,
	| 0,0,0,0,0,0,0,0,0,1,0,0,
	| 0,0,0,0,0,1,0,0,0,0,1,0,
	| 0,1,0,0,0,0,0,0,0,0,1,0,
	| 0,1,0,0,0,0,0,0,1,0,0,0,
	| 0,0,0,0,1,1,0,0,0,0,0,0,
	| 0,0,0,0,0,0,0,1,1,0,1,0,
	| 0,0,0,0,0,1,1,0,0,1,0,0,
	| 0,0,0,0,0,1,0,0,0,0,0,0,
	| 0,0,1,0,0,0,0,0,0,0,0,0,
	| 0,0,0,0,1,0,0,0,0,0,0,0,
	| 0,0,0,0,1,1,0,1,0,0,0,0,
	| 0,0,0,0,0,0,0,1,0,0,0,0,
	| 0,0,0,0,0,0,0,0,1,0,0,0,
	| 0,0,0,0,0,1,0,0,0,0,0,0,
	| 0,0,0,0,0,0,0,0,1,0,0,0,
	| 0,0,0,0,0,1,0,0,0,0,0,0,
	| 0,0,0,1,0,0,0,0,1,0,1,0,
	| 0,0,0,0,2,0,0,0,0,0,0,0,
	| 0,0,0,0,0,1,0,0,1,0,0,0,
	| 0,0,0,0,0,0,0,0,2,1,0,0,
	| 0,0,0,1,0,0,0,0,0,0,0,1,
	| 0,0,1,0,0,0,0,0,1,0,1,0,
	| 0,0,0,0,1,0,0,0,1,1,0,0,
	| 0,0,0,0,1,1,0,0,1,0,0,0,
	| 0,0,0,0,0,0,0,0,1,0,0,0,
	| 0,0,0,0,1,0,0,0,0,0,0,0,
	| 0,0,0,0,0,0,0,0,1,0,0,0,
	| 0,0,0,0,1,0,0,0,1,1,0,0,
	| 0,1,0,0,0,1,0,0,0,0,1,0,
	| 0,0,0,0,1,0,0,0,0,0,0,0,
	| 0,0,0,0,0,0,0,0,0,1,0,0,
	| 0,0,0,0,0,0,0,0,0,0,1,0,
	| 0,0,0,0,0,1,0,0,1,0,0,0,
	| 0,0,0,0,0,1,0,1,0,0,1,0,
	| 0,0,0,0,0,0,0,0,0,0,0,0, |];

% SumOfsreq = 170;

nResources = 11;
mastery = [| true,true,true,false,false,false,false,false,true,false,false,true,
	| false,false,false,false,false,false,true,true,true,false,false,false,
	| false,false,false,false,true,true,false,false,false,false,false,false,
	| false,false,false,false,false,false,false,false,false,true,true,true,
	| false,false,false,false,false,false,false,false,true,false,false,false,
	| false,false,false,false,false,false,false,true,true,false,false,false,
	| false,true,true,false,false,false,false,false,false,false,false,false,
	| false,false,false,false,true,true,false,false,false,false,false,false,
	| false,false,false,false,false,false,false,false,false,false,true,true,
	| false,false,false,true,true,true,false,false,false,false,false,true,
	| false,false,false,true,true,true,false,false,false,false,false,false, |];

nPrecs = 194;
pred = [1,1,1,2,2,2,3,3,3,4,4,4,5,5,5,6,6,6,7,7,7,8,8,8,9,9,9,10,10,11,11,11,12,12,13,13,13,14,14,15,15,16,16,16,17,17,17,18,18,18,19,19,20,20,20,21,21,21,22,22,22,23,23,23,24,24,25,25,25,26,27,27,28,28,28,29,29,30,30,30,31,31,32,33,33,34,34,34,35,35,35,36,36,36,37,37,37,38,38,39,39,39,40,40,40,41,41,41,42,42,42,43,43,43,44,44,45,46,46,47,47,47,48,48,48,49,50,50,50,51,52,53,53,53,54,54,54,55,55,55,56,56,57,57,57,58,58,58,59,59,60,61,62,63,63,64,65,66,67,67,67,68,68,68,69,69,69,70,71,71,71,72,72,73,74,75,76,77,78,78,78,79,80,81,82,83,84,85,86,87,88,89,90,91];
succ = [2,3,4,20,5,8,34,11,7,9,10,6,36,21,14,65,44,53,18,77,23,73,12,16,77,13,87,43,15,17,44,24,71,31,26,27,29,69,32,55,47,34,62,32,19,22,30,25,58,39,37,38,50,46,31,25,41,67,41,66,52,72,36,40,69,40,76,28,53,70,35,76,33,45,38,78,47,58,86,48,42,37,52,63,40,44,54,56,49,51,52,83,37,91,66,45,54,90,60,50,46,54,61,78,79,49,76,71,68,45,48,57,46,56,57,59,80,51,55,49,58,67,51,61,63,60,84,62,63,53,57,59,75,62,65,80,64,59,69,87,67,68,72,71,64,74,60,61,88,64,73,75,70,65,66,79,81,87,81,74,70,81,83,77,73,74,72,85,82,75,78,84,79,88,83,91,86,85,90,84,80,82,86,82,90,89,85,88,89,89,91,92,92,92];

nUnrels = 2404;
unpred = [2,2,2,2,2,2,2,2,2,2,2,2,2,2,2,2,2,2,2,2,2,2,2,2,3,3,3,3,3,3,3,3,3,3,3,3,3,3,3,3,3,3,3,3,3,3,4,4,4,4,4,4,4,4,4,4,4,4,4,4,4,4,4,4,4,4,4,4,4,4,4,4,4,4,4,4,4,4,4,4,4,5,5,5,5,5,5,5,5,5,5,5,5,5,5,5,5,5,5,5,5,5,5,5,5,5,5,5,5,5,5,5,5,5,5,5,5,5,5,6,6,6,6,6,6,6,6,6,6,6,6,6,6,6,6,6,6,6,6,6,6,6,6,6,6,6,6,6,6,6,6,6,6,6,6,6,6,6,6,6,6,6,6,6,6,6,6,6,6,6,6,6,6,6,6,6,6,6,6,6,6,7,7,7,7,7,7,7,7,7,7,7,7,7,7,7,7,7,7,7,7,7,7,7,7,7,7,7,7,7,7,7,7,7,7,7,7,8,8,8,8,8,8,8,8,8,8,8,8,8,8,8,8,8,8,8,8,8,8,8,8,8,8,8,8,8,8,8,8,8,8,8,8,8,9,9,9,9,9,9,9,9,9,9,9,9,9,9,9,9,9,9,9,9,9,9,9,9,9,9,9,9,9,9,9,9,9,9,9,9,9,9,9,9,9,9,10,10,10,10,10,10,10,10,10,10,10,10,10,10,10,10,10,10,10,10,10,10,10,10,10,10,10,10,10,10,10,10,10,10,10,10,10,10,10,10,10,11,11,11,11,11,11,11,11,11,11,11,11,11,11,11,11,11,11,11,11,11,11,11,11,11,11,11,11,11,11,11,12,12,12,12,12,12,12,12,12,12,12,12,12,12,12,12,12,12,12,12,12,12,12,12,12,12,12,12,12,12,12,12,12,12,12,12,12,12,12,12,12,12,12,12,12,13,13,13,13,13,13,13,13,13,13,13,13,13,13,13,13,13,13,13,13,13,13,13,13,13,13,13,13,13,13,13,13,13,13,13,13,13,13,13,13,13,14,14,14,14,14,14,14,14,14,14,14,14,14,14,14,14,14,14,14,14,14,14,14,14,14,14,14,14,14,14,14,14,14,14,14,14,14,14,14,14,14,14,14,14,14,14,14,14,14,14,14,14,14,14,14,15,15,15,15,15,15,15,15,15,15,15,15,15,15,15,15,15,15,15,15,15,15,15,15,15,15,15,15,15,15,15,15,15,15,15,15,15,15,15,15,15,15,15,15,15,15,15,15,15,15,16,16,16,16,16,16,16,16,16,16,16,16,16,16,16,16,16,16,16,16,16,16,16,16,16,16,16,16,16,16,16,16,16,16,16,16,16,16,16,16,16,16,16,17,17,17,17,17,17,17,17,17,17,17,17,17,17,17,17,17,17,17,17,17,17,17,17,17,17,17,17,17,17,18,18,18,18,18,18,18,18,18,18,18,18,18,18,18,18,18,18,18,18,18,18,18,18,18,18,18,18,18,18,19,19,19,19,19,19,19,19,19,19,19,19,19,19,19,19,19,19,19,19,19,19,19,19,19,19,19,19,19,19,19,19,19,19,19,19,19,19,19,19,19,19,19,19,19,19,19,19,19,19,19,19,19,20,20,20,20,20,20,20,20,20,20,20,20,20,20,20,20,20,20,20,20,20,20,20,20,20,20,20,20,20,20,20,20,21,21,21,21,21,21,21,21,21,21,21,21,21,21,21,21,21,21,21,21,21,21,21,21,21,21,21,21,21,21,21,21,22,22,22,22,22,22,22,22,22,22,22,22,22,22,22,22,22,22,22,22,22,22,22,22,22,22,22,22,22,22,22,22,22,22,22,22,22,22,22,22,22,22,22,22,22,23,23,23,23,23,23,23,23,23,23,23,23,23,23,23,23,23,23,23,23,23,23,23,23,23,23,23,23,23,23,23,23,23,23,23,23,23,23,23,23,23,23,23,24,24,24,24,24,24,24,24,24,24,24,24,24,24,24,24,24,24,24,24,24,24,24,24,24,24,24,24,24,24,24,24,24,24,24,24,24,24,24,24,24,24,24,24,24,24,24,24,25,25,25,25,25,25,25,25,25,25,25,25,25,25,25,25,25,25,25,25,25,25,25,25,25,25,25,25,25,25,25,25,25,25,25,26,26,26,26,26,26,26,26,26,26,26,26,26,26,26,26,26,26,26,26,26,26,26,26,26,26,26,26,26,26,26,26,26,26,26,26,26,26,26,26,26,26,26,26,26,26,26,26,26,26,26,26,26,26,26,26,26,26,26,26,26,27,27,27,27,27,27,27,27,27,27,27,27,27,27,27,27,27,27,27,27,27,27,27,27,27,27,27,27,27,27,27,27,27,27,27,27,27,28,28,28,28,28,28,28,28,28,28,28,28,28,28,28,28,28,28,28,28,28,28,28,28,28,28,28,28,28,28,28,28,28,28,28,28,28,28,28,29,29,29,29,29,29,29,29,29,29,29,29,29,29,29,29,29,29,29,29,29,29,29,29,29,29,29,29,29,29,29,29,29,29,29,29,29,29,29,29,30,30,30,30,30,30,30,30,30,30,30,30,30,30,30,30,30,30,30,30,30,30,30,30,30,30,30,30,30,30,30,30,30,30,31,31,31,31,31,31,31,31,31,31,31,31,31,31,31,31,31,31,31,31,31,31,31,31,31,31,31,31,31,31,32,32,32,32,32,32,32,32,32,32,32,32,32,32,32,32,32,32,32,32,32,32,32,32,32,32,32,32,32,32,32,32,32,32,32,32,32,32,32,32,32,32,33,33,33,33,33,33,33,33,33,33,33,33,33,33,33,33,33,33,33,33,33,33,33,33,33,33,33,33,33,33,33,33,33,33,33,33,33,33,33,34,34,34,34,34,34,34,34,34,34,34,34,34,34,34,34,34,34,34,34,34,34,34,34,34,34,34,34,34,35,35,35,35,35,35,35,35,35,35,35,35,35,35,35,35,35,35,35,35,35,35,35,35,35,35,35,35,35,35,35,36,36,36,36,36,36,36,36,36,36,36,36,36,36,36,36,36,36,36,36,36,36,36,36,36,36,36,36,36,36,36,36,36,36,36,36,36,36,36,37,37,37,37,37,37,37,37,37,37,37,37,37,37,37,37,37,37,37,37,37,37,37,37,37,37,37,37,37,37,37,37,37,37,37,37,37,37,37,37,37,38,38,38,38,38,38,38,38,38,38,38,38,38,38,38,38,38,38,38,38,38,38,38,38,38,38,38,38,38,38,38,38,38,38,38,38,38,38,38,38,38,38,38,38,38,38,38,38,39,39,39,39,39,39,39,39,39,39,39,39,39,39,39,39,39,39,39,39,39,40,40,40,40,40,40,40,40,40,40,40,40,40,40,40,40,40,40,40,40,40,40,40,40,40,40,40,40,40,40,40,40,40,40,40,40,40,40,41,41,41,41,41,41,41,41,41,41,41,41,41,41,41,41,41,41,41,41,41,41,41,41,41,41,41,41,41,41,41,41,41,41,42,42,42,42,42,42,42,42,42,42,42,42,42,42,42,42,42,42,42,42,42,42,43,43,43,43,43,43,43,43,43,43,43,43,43,43,43,44,44,44,44,44,44,44,44,44,44,44,44,44,44,44,44,44,44,44,44,44,44,44,44,44,44,44,44,44,44,45,45,45,45,45,45,45,45,45,45,45,45,45,45,45,45,45,45,45,45,45,45,45,45,45,45,45,45,45,45,45,45,45,45,45,45,45,45,45,45,45,45,45,46,46,46,46,46,46,46,46,46,46,46,46,46,46,46,46,46,46,46,46,46,46,46,47,47,47,47,47,47,47,47,47,47,47,47,47,47,47,47,47,47,47,47,47,47,47,47,47,47,47,48,48,48,48,48,48,48,48,48,48,48,48,48,48,48,48,48,48,48,48,48,48,48,49,49,49,49,49,49,49,49,49,49,49,49,49,49,49,49,49,49,49,49,49,49,49,49,49,49,49,49,49,49,49,49,49,49,49,49,49,49,50,50,50,50,50,50,50,50,50,50,50,50,50,50,50,50,50,50,50,50,50,50,50,50,50,50,50,51,51,51,51,51,51,51,51,51,51,51,51,51,51,51,51,51,51,51,51,51,51,51,51,51,51,51,51,52,52,52,52,52,52,52,52,52,52,52,52,52,52,52,52,52,52,52,52,52,52,52,53,53,53,53,53,53,53,53,53,53,53,53,53,53,53,53,53,53,53,53,53,53,53,53,53,53,53,54,54,54,54,54,54,54,54,54,54,54,54,54,54,54,54,54,54,54,54,54,54,54,54,54,54,54,54,55,55,55,55,55,55,55,55,55,55,55,55,55,55,55,55,55,55,55,55,56,56,56,56,56,56,56,56,56,56,56,56,56,56,56,56,56,56,56,56,56,56,57,57,57,57,57,57,57,57,57,57,57,57,57,57,57,57,57,57,57,58,58,58,58,58,58,58,58,58,58,58,58,58,58,58,58,58,58,58,58,58,58,58,58,59,59,59,59,59,59,59,59,59,59,59,59,59,59,59,59,59,59,59,59,59,59,59,59,59,59,60,60,60,60,60,60,60,60,60,60,60,60,60,60,60,60,60,60,60,60,60,60,60,60,60,60,60,60,61,61,61,61,61,61,61,61,61,61,61,61,61,61,61,61,61,61,61,61,61,61,61,61,61,61,61,61,62,62,62,62,62,62,62,62,62,62,62,62,62,62,62,62,62,62,62,62,62,62,62,62,62,63,63,63,63,63,63,63,63,63,63,63,63,63,63,63,63,63,63,63,63,63,64,64,64,64,64,64,64,64,64,64,64,64,64,64,64,64,64,64,64,64,64,64,64,64,65,65,65,65,65,65,65,65,65,65,65,65,65,65,65,65,65,65,65,65,65,65,65,66,66,66,66,66,66,66,66,66,66,66,66,66,66,66,66,66,66,66,66,66,66,66,67,67,67,67,67,67,67,67,67,67,67,67,67,67,68,68,68,68,68,68,68,68,68,68,68,68,68,68,69,69,69,69,69,69,69,69,69,69,70,70,70,70,70,70,70,70,70,70,70,70,70,70,70,70,70,70,71,71,71,71,71,71,71,71,71,72,72,72,72,72,72,72,72,72,72,72,72,73,73,73,73,73,73,73,73,73,73,73,73,73,73,73,73,74,74,74,74,74,74,74,74,74,74,74,74,74,74,74,75,75,75,75,75,75,75,75,75,75,75,75,75,75,75,76,76,76,76,76,76,76,76,76,76,76,76,76,77,77,77,77,77,77,77,77,77,77,77,78,78,78,78,78,79,79,79,79,79,79,79,79,79,79,80,80,80,80,80,80,80,80,80,81,81,81,81,81,81,81,81,82,82,82,82,82,82,82,82,83,83,83,83,83,83,83,84,84,84,84,85,85,85,85,86,86,86,86,87,87,87,88,88,89,89,90];
unsucc = [3,4,6,7,9,10,11,13,15,17,18,19,22,23,24,26,27,29,30,35,39,43,47,58,4,5,6,8,9,10,12,13,14,15,16,20,21,26,27,29,31,32,35,42,43,47,5,7,8,11,12,14,16,17,18,19,20,21,22,23,24,25,28,30,31,32,33,34,36,37,38,39,40,41,42,45,48,50,54,63,66,6,7,8,9,10,11,12,13,15,16,17,18,19,20,22,23,24,26,27,29,30,31,34,35,39,42,43,44,46,47,48,50,51,55,56,58,68,77,7,8,9,10,11,12,13,14,15,16,17,18,19,20,21,22,23,24,25,26,27,28,29,30,31,32,33,34,35,36,37,38,39,40,41,42,43,45,46,47,48,49,50,51,52,54,55,56,58,60,61,63,66,67,68,69,73,74,76,77,83,87,8,9,10,11,12,13,14,15,16,17,19,20,21,22,24,26,27,29,30,31,32,34,35,41,42,43,44,47,48,49,52,56,57,67,68,71,9,10,11,13,14,15,17,18,19,20,21,22,23,24,25,26,27,28,29,30,33,35,36,38,39,40,41,43,46,47,49,50,55,58,60,69,76,10,11,12,14,15,16,17,18,19,20,21,22,23,24,25,28,30,31,32,33,34,36,37,38,39,40,41,42,43,44,45,46,48,50,54,55,56,63,65,66,68,69,11,12,13,14,16,17,18,19,20,21,22,23,24,25,26,27,28,29,30,31,32,33,34,35,36,37,38,39,40,41,42,44,45,48,50,52,54,63,65,66,76,12,13,14,15,16,18,20,21,23,25,26,27,28,29,31,32,33,34,35,36,39,42,43,46,47,50,55,56,67,68,77,13,14,15,16,17,18,19,20,21,22,23,24,25,26,27,28,29,30,32,33,34,35,36,38,39,40,41,43,44,46,47,49,50,52,55,56,57,58,60,67,69,72,73,74,76,14,15,16,17,18,19,20,21,22,23,24,25,28,30,31,32,33,34,36,37,38,39,40,41,42,43,44,45,46,48,50,54,55,56,63,65,66,68,69,77,87,15,16,17,18,19,20,21,22,23,24,25,26,27,28,29,30,31,33,34,35,36,37,38,39,40,41,42,43,44,45,46,47,48,49,50,51,53,54,55,56,58,59,60,61,62,63,65,66,67,68,70,76,77,81,87,16,17,18,19,20,21,22,23,24,25,26,27,28,29,30,31,32,33,34,35,36,37,38,39,40,41,42,43,44,45,46,48,50,51,52,53,54,56,57,62,63,65,66,68,71,76,77,78,80,86,17,18,19,20,21,22,23,24,25,26,27,28,29,30,31,33,35,36,37,38,39,40,41,42,43,45,46,47,48,49,50,51,53,55,58,60,61,63,66,69,73,76,87,18,20,21,23,24,25,26,27,28,29,31,32,33,34,35,36,39,40,42,43,44,46,47,50,55,56,67,68,69,77,19,20,21,22,23,24,26,27,29,30,31,32,34,35,36,37,41,42,43,44,47,48,49,52,56,57,67,68,71,77,20,21,22,23,24,25,26,27,28,29,30,31,32,33,34,35,36,39,40,41,42,43,44,46,47,48,49,50,51,52,53,55,56,57,58,59,61,62,63,67,68,69,70,71,72,74,75,76,77,78,83,84,85,21,22,23,24,25,26,27,28,29,30,32,33,34,35,36,38,39,40,41,43,44,47,49,52,56,57,58,60,67,71,76,78,22,23,24,26,27,29,30,31,32,34,35,36,37,39,42,43,44,46,47,48,50,51,52,54,55,56,57,58,68,69,72,77,23,24,25,26,27,28,29,30,31,32,33,34,35,36,37,38,39,40,42,43,44,45,46,47,48,50,51,53,54,55,56,58,59,61,62,63,65,67,68,69,70,74,77,81,83,24,25,26,27,28,29,30,31,32,33,34,35,38,39,41,42,43,44,46,47,48,49,50,51,52,53,55,56,57,58,59,60,62,63,67,68,69,70,71,73,74,76,77,25,26,27,28,29,30,31,32,33,34,35,36,37,38,39,41,42,43,44,45,46,47,48,49,50,51,52,53,54,55,56,57,58,59,60,62,63,64,65,66,67,68,70,71,76,77,81,87,26,27,29,30,31,32,34,35,36,37,39,41,42,43,44,46,47,48,49,50,51,52,54,55,56,57,58,67,68,69,71,72,74,77,83,27,28,29,30,31,32,33,34,35,36,37,38,39,40,41,42,43,44,45,46,47,48,49,50,51,52,53,54,55,56,57,58,59,60,61,62,63,64,65,66,67,68,69,71,72,73,74,75,76,77,78,79,80,81,82,83,84,86,87,89,90,28,29,30,31,32,33,34,36,37,38,39,40,41,42,43,44,45,46,47,48,50,54,55,56,58,61,63,65,66,67,68,69,74,77,81,83,87,29,30,31,32,34,35,36,37,39,41,42,43,44,46,47,48,49,50,51,52,53,54,55,56,57,58,59,62,64,67,68,69,70,71,72,74,76,77,83,30,31,32,33,34,35,36,37,38,39,40,41,42,43,44,45,46,48,50,51,52,53,54,55,56,57,59,62,63,64,65,66,68,69,71,72,76,77,79,87,31,32,33,34,35,36,37,38,39,40,41,42,43,44,45,46,47,49,50,52,54,55,56,57,67,68,69,71,72,76,77,78,80,84,32,33,34,35,36,38,39,40,41,43,44,46,47,49,50,52,55,56,57,58,60,67,69,71,72,73,74,76,78,84,33,34,35,36,37,38,39,40,41,42,43,44,45,46,47,48,49,50,51,53,54,55,56,58,59,60,61,62,63,65,66,67,68,69,70,73,74,76,77,81,83,87,34,35,36,37,38,39,41,42,43,44,45,46,47,48,49,50,51,52,53,54,55,56,57,58,59,60,62,64,67,68,69,70,71,72,73,74,76,77,83,35,36,37,38,39,40,41,42,43,45,46,47,48,49,50,51,52,53,55,58,60,61,62,63,66,69,73,76,87,36,37,38,39,40,41,42,43,44,45,46,47,48,50,54,55,56,58,61,63,65,66,67,68,69,74,76,77,81,83,87,38,39,40,41,42,43,44,46,47,48,49,50,51,52,53,55,56,57,58,59,60,61,62,63,67,68,69,70,71,72,73,74,75,76,77,78,84,85,88,38,39,40,41,42,43,44,46,47,48,49,50,51,52,53,55,56,57,58,59,60,61,62,63,67,68,69,70,71,72,73,74,75,76,77,78,83,84,85,88,91,39,40,41,42,43,44,45,46,47,48,49,50,51,52,53,54,55,56,57,58,59,61,62,63,64,65,66,67,68,69,70,71,72,74,75,76,77,78,79,80,81,82,83,84,85,86,87,89,40,41,42,43,44,45,47,48,49,52,56,57,58,60,61,67,68,71,76,77,78,41,42,43,44,45,46,47,48,49,50,51,52,53,54,55,56,57,58,59,60,62,63,64,65,66,67,68,69,70,71,72,73,74,76,77,81,83,87,42,43,44,45,46,47,48,50,51,52,53,54,55,56,57,58,59,61,62,63,64,65,66,67,68,69,70,72,74,77,79,81,83,87,43,44,46,47,49,50,52,54,55,56,57,58,60,67,69,71,72,73,74,76,78,84,44,45,47,48,49,50,52,54,58,60,61,63,65,66,76,45,46,47,48,49,50,51,52,53,54,55,56,58,60,61,62,63,65,66,67,68,69,70,73,74,76,77,81,83,87,46,47,48,49,50,51,52,53,54,55,56,57,58,59,60,61,62,63,64,65,66,67,68,69,70,71,72,73,74,75,76,77,78,79,81,82,83,84,85,87,88,90,91,47,48,49,50,52,54,56,57,58,60,61,63,65,66,67,68,71,76,77,78,80,81,86,48,50,51,52,53,54,55,56,57,59,62,63,64,65,66,68,69,71,72,76,77,78,79,80,84,86,87,49,50,52,54,55,56,57,58,60,67,68,69,71,72,73,74,76,77,78,80,83,84,86,50,51,52,53,54,55,56,57,58,59,61,62,63,64,65,66,67,68,69,70,71,72,74,75,76,77,78,79,80,81,82,83,84,85,86,87,89,90,51,52,53,54,55,56,57,58,59,60,61,64,67,68,69,71,72,73,74,75,76,77,78,79,80,83,86,52,54,55,56,57,58,60,61,63,65,66,67,68,69,71,72,73,74,76,77,78,80,81,83,84,86,87,89,53,54,55,56,58,59,60,61,62,63,65,66,67,68,69,70,73,74,76,77,81,83,87,54,55,56,57,58,60,61,63,65,66,67,68,69,71,72,73,74,76,77,78,80,81,83,84,86,87,89,55,56,57,58,59,60,61,62,63,66,67,68,69,70,71,72,73,74,75,76,77,78,83,84,85,87,88,91,56,57,58,60,61,62,63,65,66,67,68,70,71,75,76,77,78,80,81,86,57,58,59,60,61,62,63,64,65,66,69,71,72,73,75,76,78,79,80,84,86,87,58,59,60,61,62,63,65,66,67,68,69,70,73,74,76,77,81,83,87,59,62,63,64,65,66,67,68,69,70,71,72,76,77,78,79,80,81,82,84,85,86,87,90,60,61,62,63,65,66,67,68,69,70,71,72,73,74,75,76,77,78,80,81,83,84,85,86,87,89,61,62,63,64,65,66,67,68,69,70,71,72,74,75,76,77,78,79,80,81,82,83,84,85,86,87,89,90,62,63,64,65,66,67,68,69,70,71,72,73,74,76,77,78,79,80,81,82,83,84,85,86,87,88,89,90,63,64,65,66,67,68,69,71,72,73,74,75,76,77,78,79,80,81,82,83,84,86,87,89,90,64,67,68,69,70,71,72,73,74,75,76,77,78,79,80,83,84,85,86,88,91,65,66,67,68,69,70,71,72,73,74,75,76,77,78,80,81,83,84,85,86,87,88,89,91,66,67,68,69,70,71,72,73,74,75,76,77,78,79,80,83,84,85,86,87,88,89,91,67,68,69,70,71,72,73,74,75,76,77,78,79,80,81,82,83,84,85,86,88,90,91,68,69,71,72,73,75,76,77,78,79,80,84,86,87,69,70,71,72,73,74,75,76,78,79,80,84,86,87,70,71,75,76,77,78,80,81,86,87,71,72,73,74,75,76,77,78,79,80,81,82,83,84,86,87,89,90,72,73,74,76,77,79,81,83,87,73,74,75,76,77,78,80,81,83,86,87,89,74,75,76,77,78,79,80,81,82,83,84,85,86,87,89,90,75,76,77,78,79,80,81,82,84,85,86,87,88,90,91,76,77,78,79,80,81,82,83,84,85,86,87,88,89,90,77,78,79,80,81,82,83,84,85,87,88,90,91,78,79,80,81,82,83,84,86,87,89,90,79,81,82,83,87,80,81,83,84,85,86,87,88,89,91,81,82,83,84,85,87,88,90,91,83,84,85,86,87,88,89,91,83,84,85,86,87,88,89,91,84,85,86,87,88,90,91,86,87,89,90,86,87,89,90,87,88,90,91,88,90,91,89,90,90,91,91];

USEFUL_RES = [{},
	{1,2,3,5,6,8,10,11},
	{3,8,10,11},
	{2,3,4,6,8,10,11},
	{1,2,3,5,6,8,10,11},
	{1,2,5,6},
	{1,7},
	{1},
	{4,9},
	{3,8,10,11},
	{3,8,10,11},
	{1,2,5,6},
	{3,8,10,11},
	{1,2,3,5,6,8,10,11},
	{4,9},
	{1,2,5,6,7},
	{1,2,6,7},
	{2},
	{1,2,3,4,5,6,8,9,10,11},
	{1,7},
	{3,8,10,11},
	{4,9},
	{1,2,5,6},
	{1,4,7,9,10,11},
	{1,2,3,5,6,8,10,11},
	{1,7},
	{3,4,8,10,11},
	{1,2,3,5,6,7,8,10,11},
	{4},
	{3,8,10,11},
	{1,2,4,5,6,7,9},
	{1,7},
	{2,4,6,9},
	{2,4},
	{1,2,7},
	{3,8,10,11},
	{1,2,5,6},
	{2},
	{1,3,7,8,10,11},
	{3,8,10,11},
	{1,2,3,5,6,8,10,11},
	{2,3,6,8,10,11},
	{1,3,8,10,11},
	{3,4,8,9,10,11},
	{1},
	{2,3,4,8,9,10,11},
	{1,7,10,11},
	{4,9},
	{1,7},
	{1,2,5,6},
	{1,2,5,6,7},
	{1,2,5,6,7},
	{2,6},
	{3,4,8,9,10,11},
	{1,2,3,5,6,8,10,11},
	{1,2,4,5,6,10,11},
	{3,4,8,9,10,11},
	{4},
	{3,4,8,9,10,11},
	{1,4,7,9},
	{1,2,5,6,7},
	{3,8,10,11},
	{1,2,4,5,6,9},
	{2,3,4,8,10,11},
	{3,8,10,11},
	{1,7},
	{3,8,10,11},
	{2,3,6,8,10,11},
	{2,6},
	{1,2,5,6},
	{3,8,10,11},
	{1,2,5,6},
	{3,8,10,11},
	{1,2,4,5,6,9,10,11},
	{3,8,10,11},
	{1,2,3,5,6,8,10,11},
	{1,2,4,5,6},
	{1,4,9,10,11},
	{1,2,4,5,6,7,9},
	{1,2,3,4,5,6,8,10,11},
	{1,2,3,5,6,8,10,11},
	{1,2,5,6},
	{3,8,10,11},
	{1,2,5,6},
	{1,2,3,4,5,6,8,10,11},
	{1,3,4,7,8,9,10,11},
	{3,8,10,11},
	{4},
	{4,9},
	{1,2,3,5,6,8,10,11},
	{2,3,4,6,8,9,10,11},
	{}];

POTENTIAL_ACT = [{2,5,6,7,8,12,14,16,17,19,20,23,24,25,26,28,31,32,35,37,39,41,43,45,47,49,50,51,52,55,56,60,61,63,66,70,72,74,76,77,78,79,80,81,82,84,85,86,90},
	{2,4,5,6,12,14,16,17,18,19,23,25,28,31,33,34,35,37,38,41,42,46,50,51,52,53,55,56,61,63,64,68,69,70,72,74,76,77,79,80,81,82,84,85,90,91},
	{2,3,4,5,10,11,13,14,19,21,25,27,28,30,36,39,40,41,42,43,44,46,54,55,57,59,62,64,65,67,68,71,73,75,76,80,81,83,85,86,87,90,91},
	{4,9,15,19,22,24,27,29,31,33,34,44,46,48,54,56,57,58,59,60,63,64,74,77,78,79,80,85,86,88,89,91},
	{2,5,6,12,14,16,19,23,25,28,31,37,41,50,51,52,55,56,61,63,70,72,74,76,77,79,80,81,82,84,85,90},
	{2,4,5,6,12,14,16,17,19,23,25,28,31,33,37,41,42,50,51,52,53,55,56,61,63,68,69,70,72,74,76,77,79,80,81,82,84,85,90,91},
	{7,16,17,20,24,26,28,31,32,35,39,47,49,51,52,60,61,66,79,86},
	{2,3,4,5,10,11,13,14,19,21,25,27,28,30,36,39,40,41,42,43,44,46,54,55,57,59,62,64,65,67,68,71,73,75,76,80,81,83,85,86,87,90,91},
	{9,15,19,22,24,31,33,44,46,48,54,57,59,60,63,74,78,79,86,89,91},
	{2,3,4,5,10,11,13,14,19,21,24,25,27,28,30,36,39,40,41,42,43,44,46,47,54,55,56,57,59,62,64,65,67,68,71,73,74,75,76,78,80,81,83,85,86,87,90,91},
	{2,3,4,5,10,11,13,14,19,21,24,25,27,28,30,36,39,40,41,42,43,44,46,47,54,55,56,57,59,62,64,65,67,68,71,73,74,75,76,78,80,81,83,85,86,87,90,91}];
